single_objective/SL-DABL/OP/problems/op/OPLib-master/solutions/ea4op/gen1/eil51-gen1-50.sol
NAME : eil51
TYPE : OP
DIMENSION : 51
COST_LIMIT : 213
ROUTE_NODES : 29
ROUTE_SCORE : 29
ROUTE_COST : 210
NODE_SEQUENCE_SECTION
1
22
28
31
26
8
48
27
51
46
12
47
4
17
37
44
15
45
33
10
49
9
30
34
50
16
38
11
32
-1
DEPOT_SECTION
1
-1
EOF
